20 43
13 19 5
8 19 2
8 13 1
1 19 5
1 13 5
1 8 4
1 7 3
7 19 1
7 13 3
7 8 4
7 17 5
17 18 5
9 17 2
9 18 3
9 11 4
3 17 5
3 9 1
3 18 2
3 11 4
11 17 1
11 18 4
11 16 2
16 20 1
10 16 5
10 20 3
10 12 4
12 16 4
12 20 1
4 16 1
4 10 3
4 20 3
4 12 1
2 6 3
2 14 5
2 15 5
2 5 2
2 4 1
6 14 1
6 15 4
14 15 3
5 6 5
5 14 5
5 15 3
